p tw 118 125
1 2
2 31
3 14
4 5
5 6
6 7
7 8
8 9
8 11
9 10
10 11
11 12
12 13
13 15
14 23
15 21
16 17
17 18
18 19
19 20
20 21
21 22
23 24
24 25
25 26
26 27
27 28
27 16
28 29
29 30
30 32
31 42
32 33
33 34
34 35
35 36
36 37
37 38
38 39
39 40
40 41
41 43
42 53
43 44
44 45
45 46
46 47
46 48
47 48
48 49
49 50
50 51
51 52
52 54
53 64
54 55
55 56
56 57
57 58
57 69
58 59
59 60
60 61
61 62
62 63
63 65
64 75
65 66
66 67
67 68
68 69
69 70
70 71
71 72
72 73
73 74
73 85
74 76
75 86
76 77
77 78
78 79
79 80
80 81
81 82
82 83
83 84
84 85
85 87
86 97
87 88
88 89
89 90
89 93
90 91
91 92
92 5
93 94
94 95
95 96
95 100
96 98
97 108
98 99
99 5
100 101
101 102
102 103
103 104
104 105
105 106
106 107
107 109
108 3
108 16
109 110
110 111
111 112
112 113
113 114
114 115
115 116
116 117
117 118
118 4
